unsat
(error "line 2701 column 17: model is not available")
(error "line 2702 column 17: model is not available")
(error "line 2703 column 18: model is not available")
(error "line 2704 column 18: model is not available")
(error "line 2705 column 18: model is not available")
(error "line 2706 column 18: model is not available")
(error "line 2707 column 18: model is not available")
(error "line 2708 column 18: model is not available")
(error "line 2709 column 18: model is not available")
(error "line 2710 column 18: model is not available")
(error "line 2711 column 18: model is not available")
(error "line 2712 column 18: model is not available")
(error "line 2713 column 17: model is not available")
(error "line 2714 column 18: model is not available")
(error "line 2715 column 18: model is not available")
(error "line 2716 column 18: model is not available")
(error "line 2717 column 17: model is not available")
(error "line 2718 column 17: model is not available")
(error "line 2719 column 17: model is not available")
(error "line 2720 column 17: model is not available")
(error "line 2721 column 17: model is not available")
(error "line 2722 column 17: model is not available")
(error "line 2723 column 17: model is not available")
(error "line 2724 column 38: model is not available")
(error "line 2725 column 45: model is not available")
(error "line 2726 column 38: model is not available")
(error "line 2727 column 45: model is not available")
(error "line 2728 column 46: model is not available")
(error "line 2729 column 53: model is not available")
(error "line 2730 column 40: model is not available")
(error "line 2731 column 47: model is not available")
(error "line 2732 column 38: model is not available")
(error "line 2733 column 45: model is not available")
(error "line 2734 column 38: model is not available")
(error "line 2735 column 45: model is not available")
(error "line 2736 column 41: model is not available")
(error "line 2737 column 48: model is not available")
(error "line 2738 column 42: model is not available")
(error "line 2739 column 42: model is not available")
(error "line 2740 column 49: model is not available")
(error "line 2741 column 42: model is not available")
(error "line 2742 column 49: model is not available")
(error "line 2743 column 42: model is not available")
(error "line 2744 column 42: model is not available")
(error "line 2745 column 49: model is not available")
(error "line 2746 column 41: model is not available")
(error "line 2747 column 48: model is not available")
(error "line 2748 column 41: model is not available")
(error "line 2749 column 48: model is not available")
(error "line 2750 column 41: model is not available")
(error "line 2751 column 41: model is not available")
(error "line 2752 column 48: model is not available")
(error "line 2753 column 41: model is not available")
(error "line 2754 column 48: model is not available")
(error "line 2755 column 41: model is not available")
(error "line 2756 column 41: model is not available")
(error "line 2757 column 48: model is not available")
(error "line 2758 column 41: model is not available")
(error "line 2759 column 48: model is not available")
(error "line 2760 column 37: model is not available")
(error "line 2761 column 44: model is not available")
(error "line 2762 column 42: model is not available")
(error "line 2763 column 42: model is not available")
(error "line 2764 column 42: model is not available")
(error "line 2765 column 42: model is not available")
(error "line 2766 column 42: model is not available")
(error "line 2767 column 42: model is not available")
(error "line 2768 column 38: model is not available")
(error "line 2769 column 38: model is not available")
(error "line 2770 column 38: model is not available")
(error "line 2771 column 38: model is not available")
(error "line 2772 column 38: model is not available")
(error "line 2773 column 38: model is not available")
(error "line 2774 column 38: model is not available")
(error "line 2775 column 38: model is not available")
(error "line 2776 column 38: model is not available")
(error "line 2777 column 38: model is not available")
(error "line 2778 column 38: model is not available")
(error "line 2779 column 41: model is not available")
(error "line 2780 column 48: model is not available")
(error "line 2781 column 42: model is not available")
(error "line 2782 column 49: model is not available")
(error "line 2783 column 42: model is not available")
(error "line 2784 column 49: model is not available")
(error "line 2785 column 41: model is not available")
(error "line 2786 column 48: model is not available")
(error "line 2787 column 41: model is not available")
(error "line 2788 column 48: model is not available")
(error "line 2789 column 41: model is not available")
(error "line 2790 column 48: model is not available")
(error "line 2791 column 41: model is not available")
(error "line 2792 column 48: model is not available")
(error "line 2793 column 41: model is not available")
(error "line 2794 column 48: model is not available")
(error "line 2795 column 41: model is not available")
(error "line 2796 column 48: model is not available")
(error "line 2797 column 41: model is not available")
(error "line 2798 column 48: model is not available")
(error "line 2799 column 41: model is not available")
(error "line 2800 column 48: model is not available")
(error "line 2801 column 44: model is not available")
(error "line 2802 column 22: model is not available")
(error "line 2803 column 20: model is not available")
(error "line 2804 column 22: model is not available")
(error "line 2805 column 22: model is not available")
(error "line 2806 column 29: model is not available")
(error "line 2807 column 38: model is not available")
(error "line 2808 column 36: model is not available")
(error "line 2809 column 36: model is not available")
(error "line 2810 column 36: model is not available")
(error "line 2811 column 36: model is not available")
(error "line 2812 column 36: model is not available")
(error "line 2813 column 31: model is not available")
(error "line 2814 column 31: model is not available")
(error "line 2815 column 31: model is not available")
(error "line 2816 column 31: model is not available")
(error "line 2817 column 31: model is not available")
(error "line 2818 column 31: model is not available")
(error "line 2819 column 30: model is not available")
(error "line 2820 column 32: model is not available")
(error "line 2821 column 39: model is not available")
(error "line 2822 column 32: model is not available")
(error "line 2823 column 39: model is not available")
(error "line 2824 column 30: model is not available")
(error "line 2825 column 32: model is not available")
(error "line 2826 column 39: model is not available")
(error "line 2827 column 32: model is not available")
(error "line 2828 column 39: model is not available")
(error "line 2829 column 32: model is not available")
(error "line 2830 column 39: model is not available")
(error "line 2831 column 32: model is not available")
(error "line 2832 column 39: model is not available")
(error "line 2833 column 32: model is not available")
(error "line 2834 column 39: model is not available")
(error "line 2835 column 31: model is not available")
(error "line 2836 column 31: model is not available")
(error "line 2837 column 53: model is not available")
(error "line 2838 column 52: model is not available")
(error "line 2839 column 53: model is not available")
(error "line 2840 column 53: model is not available")
(error "line 2841 column 52: model is not available")
(error "line 2842 column 53: model is not available")
(error "line 2843 column 53: model is not available")
(error "line 2844 column 53: model is not available")
(error "line 2845 column 52: model is not available")
(error "line 2846 column 53: model is not available")
(error "line 2847 column 53: model is not available")
(error "line 2848 column 53: model is not available")
(error "line 2849 column 53: model is not available")
(error "line 2850 column 52: model is not available")
(error "line 2851 column 52: model is not available")
(error "line 2852 column 51: model is not available")
(error "line 2853 column 51: model is not available")
(error "line 2854 column 51: model is not available")
(error "line 2855 column 51: model is not available")
(error "line 2856 column 51: model is not available")
(error "line 2857 column 52: model is not available")
(error "line 2858 column 51: model is not available")
(error "line 2859 column 51: model is not available")
(error "line 2860 column 51: model is not available")
(error "line 2861 column 51: model is not available")
(error "line 2862 column 51: model is not available")
(error "line 2863 column 50: model is not available")
(error "line 2864 column 50: model is not available")
(error "line 2865 column 50: model is not available")
(error "line 2866 column 50: model is not available")
(error "line 2867 column 50: model is not available")
(error "line 2868 column 52: model is not available")
(error "line 2869 column 51: model is not available")
(error "line 2870 column 51: model is not available")
(error "line 2871 column 51: model is not available")
(error "line 2872 column 51: model is not available")
(error "line 2873 column 50: model is not available")
(error "line 2874 column 50: model is not available")
(error "line 2875 column 50: model is not available")
(error "line 2876 column 50: model is not available")
(error "line 2877 column 50: model is not available")
(error "line 2878 column 52: model is not available")
(error "line 2879 column 51: model is not available")
(error "line 2880 column 51: model is not available")
(error "line 2881 column 51: model is not available")
(error "line 2882 column 51: model is not available")
(error "line 2883 column 51: model is not available")
(error "line 2884 column 51: model is not available")
(error "line 2885 column 51: model is not available")
(error "line 2886 column 51: model is not available")
(error "line 2887 column 51: model is not available")
(error "line 2888 column 52: model is not available")
(error "line 2889 column 51: model is not available")
(error "line 2890 column 51: model is not available")
(error "line 2891 column 51: model is not available")
(error "line 2892 column 51: model is not available")
(error "line 2893 column 51: model is not available")
(error "line 2894 column 51: model is not available")
(error "line 2895 column 51: model is not available")
(error "line 2896 column 51: model is not available")
(error "line 2897 column 51: model is not available")
(error "line 2898 column 52: model is not available")
(error "line 2899 column 51: model is not available")
(error "line 2900 column 51: model is not available")
(error "line 2901 column 51: model is not available")
(error "line 2902 column 51: model is not available")
(error "line 2903 column 51: model is not available")
(error "line 2904 column 51: model is not available")
(error "line 2905 column 51: model is not available")
(error "line 2906 column 51: model is not available")
(error "line 2907 column 51: model is not available")
(error "line 2908 column 56: model is not available")
(error "line 2909 column 56: model is not available")
(error "line 2910 column 56: model is not available")
(error "line 2911 column 56: model is not available")
(error "line 2912 column 55: model is not available")
(error "line 2913 column 55: model is not available")
(error "line 2914 column 55: model is not available")
(error "line 2915 column 55: model is not available")
(error "line 2916 column 55: model is not available")
(error "line 2917 column 55: model is not available")
(error "line 2918 column 55: model is not available")
(error "line 2919 column 55: model is not available")
(error "line 2920 column 55: model is not available")
(error "line 2921 column 55: model is not available")
(error "line 2922 column 55: model is not available")
(error "line 2923 column 55: model is not available")
(error "line 2924 column 55: model is not available")
(error "line 2925 column 55: model is not available")
(error "line 2926 column 55: model is not available")
(error "line 2927 column 55: model is not available")
(error "line 2928 column 55: model is not available")
(error "line 2929 column 55: model is not available")
(error "line 2930 column 55: model is not available")
(error "line 2931 column 55: model is not available")
(error "line 2932 column 55: model is not available")
(error "line 2933 column 55: model is not available")
(error "line 2934 column 55: model is not available")
(error "line 2935 column 55: model is not available")
(error "line 2936 column 55: model is not available")
(error "line 2937 column 46: model is not available")
(error "line 2938 column 46: model is not available")
(error "line 2939 column 46: model is not available")
(error "line 2940 column 46: model is not available")
(error "line 2941 column 46: model is not available")
(error "line 2942 column 46: model is not available")
(error "line 2943 column 46: model is not available")
(error "line 2944 column 46: model is not available")
(error "line 2945 column 46: model is not available")
(error "line 2946 column 46: model is not available")
(error "line 2947 column 54: model is not available")
(error "line 2948 column 54: model is not available")
(error "line 2949 column 54: model is not available")
(error "line 2950 column 54: model is not available")
(error "line 2951 column 54: model is not available")
(error "line 2952 column 54: model is not available")
(error "line 2953 column 54: model is not available")
(error "line 2954 column 54: model is not available")
(error "line 2955 column 54: model is not available")
(error "line 2956 column 54: model is not available")
(error "line 2957 column 54: model is not available")
(error "line 2958 column 54: model is not available")
(error "line 2959 column 54: model is not available")
(error "line 2960 column 54: model is not available")
(error "line 2961 column 54: model is not available")
(error "line 2962 column 40: model is not available")
(error "line 2963 column 40: model is not available")
(error "line 2964 column 40: model is not available")
(error "line 2965 column 40: model is not available")
(error "line 2966 column 40: model is not available")
(error "line 2967 column 40: model is not available")
(error "line 2968 column 40: model is not available")
(error "line 2969 column 40: model is not available")
(error "line 2970 column 40: model is not available")
(error "line 2971 column 40: model is not available")
(error "line 2972 column 41: model is not available")
(error "line 2973 column 41: model is not available")
(error "line 2974 column 41: model is not available")
(error "line 2975 column 41: model is not available")
(error "line 2976 column 41: model is not available")
(error "line 2977 column 41: model is not available")
(error "line 2978 column 41: model is not available")
(error "line 2979 column 41: model is not available")
(error "line 2980 column 41: model is not available")
(error "line 2981 column 41: model is not available")
(error "line 2982 column 50: model is not available")
(error "line 2983 column 50: model is not available")
(error "line 2984 column 50: model is not available")
(error "line 2985 column 50: model is not available")
(error "line 2986 column 50: model is not available")
(error "line 2987 column 50: model is not available")
(error "line 2988 column 50: model is not available")
(error "line 2989 column 50: model is not available")
(error "line 2990 column 50: model is not available")
(error "line 2991 column 50: model is not available")
(error "line 2992 column 43: model is not available")
(error "line 2993 column 43: model is not available")
(error "line 2994 column 43: model is not available")
(error "line 2995 column 43: model is not available")
(error "line 2996 column 43: model is not available")
(error "line 2997 column 43: model is not available")
(error "line 2998 column 43: model is not available")
(error "line 2999 column 43: model is not available")
(error "line 3000 column 43: model is not available")
(error "line 3001 column 43: model is not available")
(error "line 3002 column 27: model is not available")
(error "line 3003 column 30: model is not available")
(error "line 3004 column 30: model is not available")
(error "line 3005 column 30: model is not available")
(error "line 3006 column 30: model is not available")
(error "line 3007 column 30: model is not available")
(error "line 3008 column 36: model is not available")
(error "line 3009 column 36: model is not available")
(error "line 3010 column 36: model is not available")
(error "line 3011 column 36: model is not available")
(error "line 3012 column 36: model is not available")
(error "line 3013 column 36: model is not available")
(error "line 3014 column 30: model is not available")
(error "line 3015 column 36: model is not available")
(error "line 3016 column 36: model is not available")
(error "line 3017 column 36: model is not available")
(error "line 3018 column 36: model is not available")
(error "line 3019 column 36: model is not available")
(error "line 3020 column 36: model is not available")
(error "line 3021 column 36: model is not available")
(error "line 3022 column 36: model is not available")
(error "line 3023 column 36: model is not available")
(error "line 3024 column 31: model is not available")
(error "line 3025 column 31: model is not available")
(error "line 3026 column 31: model is not available")
(error "line 3027 column 31: model is not available")
(error "line 3028 column 31: model is not available")
(error "line 3029 column 31: model is not available")
(error "line 3030 column 31: model is not available")
(error "line 3031 column 31: model is not available")
(error "line 3032 column 30: model is not available")
(error "line 3033 column 30: model is not available")
(error "line 3034 column 30: model is not available")
(error "line 3035 column 30: model is not available")
(error "line 3036 column 18: model is not available")
(error "line 3037 column 25: model is not available")
(error "line 3038 column 19: model is not available")
(error "line 3039 column 26: model is not available")
(error "line 3040 column 19: model is not available")
(error "line 3041 column 26: model is not available")
(error "line 3042 column 19: model is not available")
(error "line 3043 column 26: model is not available")
(error "line 3044 column 18: model is not available")
(error "line 3045 column 25: model is not available")
(error "line 3046 column 18: model is not available")
(error "line 3047 column 25: model is not available")
(error "line 3048 column 18: model is not available")
(error "line 3049 column 25: model is not available")
(error "line 3050 column 18: model is not available")
(error "line 3051 column 25: model is not available")
(error "line 3052 column 18: model is not available")
(error "line 3053 column 25: model is not available")
(error "line 3054 column 18: model is not available")
(error "line 3055 column 25: model is not available")
(error "line 3056 column 18: model is not available")
(error "line 3057 column 25: model is not available")
(error "line 3058 column 18: model is not available")
(error "line 3059 column 25: model is not available")
(error "line 3061 column 10: model is not available")
(:added-eqs                      5438
 :arith-bound-propagations-cheap 2237
 :arith-bound-propagations-lp    300
 :arith-conflicts                3
 :arith-lower                    1180
 :arith-make-feasible            597
 :arith-max-columns              192
 :arith-max-rows                 147
 :arith-propagations             2237
 :arith-upper                    1833
 :array-ax1                      4
 :binary-propagations            27434
 :bv-bit2core                    17028
 :bv-diseqs                      7
 :bv-dynamic-diseqs              65
 :bv->core-eq                    606
 :conflicts                      584
 :decisions                      1800
 :del-clause                     5114
 :eliminated-applications        21
 :eliminated-vars                10
 :max-memory                     5.24
 :memory                         3.35
 :minimized-lits                 5662
 :mk-bool-var                    3641
 :mk-clause                      8552
 :num-allocs                     3162902
 :num-checks                     1
 :propagations                   60803
 :restarts                       5
 :rlimit-count                   281288
 :time                           0.06
 :total-time                     0.06)

real	0m0.069s
user	0m0.068s
sys	0m0.000s
State: RE Run_time: 0.07056927680969238